18 3 
68 11 
98 6 
90 49 
86 69 
42 4 
60 50 
28 68 
8 1 
88 58 
75 89 
51 14 
45 80 
62 77 
37 21 
65 8 
24 86 
19 74 
92 61 
76 78 
83 70 
34 43 
20 62 
63 81 
63 3 
91 91 
93 42 
57 90 
23 19 
68 12 
40 85 
20 16 
71 91 
43 63 
5 19 
94 88 
41 28 
83 61 
43 47 
94 58 
50 85 
49 95 
28 7 
86 3 
78 6 
67 71 
91 40 
39 15 
83 82 
78 88 
